 C  N Ni                                
   1.00000000000000     
    12.4724258846057818   -0.0001445862861893    0.0021945870855048
    -0.0000340451365095   12.5791320290270257    0.0001714680289281
     0.0042732230644649    0.0013547197676159   18.2246878616136456
   C    N    Ni
    50     6     2
Direct
  0.0572941482415189  0.0547758941099234  0.0556838779913427
  0.1577119144696253  0.1103689306519785  0.0557847335682649
  0.1565341678443455  0.2233050559090037  0.0552433402968072
  0.0555399518306114  0.2751243917504466  0.0544049266205558
  0.2579882602246858  0.0556442423843807  0.0564289077332038
  0.3566881413409082  0.1151509139911455  0.0570803204506518
  0.3556728931093444  0.2293821788438632  0.0570040505280722
  0.2547854266524671  0.2835716830669289  0.0557076292496146
  0.4561548407173756  0.0559662330167324  0.0576623494132383
  0.5556370424196547  0.1151364299254687  0.0577168711772809
  0.5566431373836577  0.2293818533384175  0.0577916762631016
  0.4561502881731054  0.2911047713034524  0.0581250160684096
  0.6543420146660949  0.0556375308535407  0.0573837212414826
  0.7546364730254672  0.1103647265120478  0.0567447659290071
  0.7557933800118054  0.2232891427119654  0.0563870609823248
  0.6575430817537444  0.2835707957922358  0.0570820691317991
  0.8550863696690885  0.0547807868660745  0.0562479904069212
  0.9561928180906943  0.1082551576812646  0.0556432318845665
  0.9561707114171336  0.2198836228149816  0.0549593973459343
  0.8567786495007684  0.2751012521032510  0.0551630655016687
  0.0538653176272631  0.3872633864120501  0.0534301877031346
  0.1516078493372821  0.4418953327263954  0.0536365990597188
  0.1516198323759814  0.5555992182813639  0.0536391041659872
  0.0538675140008557  0.6102390572464015  0.0534520649425646
  0.7606688215894588  0.4418850996706675  0.0553221870334703
  0.7606841467158951  0.5555925215554891  0.0553452271798883
  0.8584009817355021  0.3872416062282452  0.0543501601671749
  0.9561273988196997  0.4428045065087917  0.0532523148690019
  0.9561260468769454  0.5546919803166850  0.0532652976883484
  0.8584018495878175  0.6102457735262030  0.0543773892551164
  0.0555182994274135  0.7223708195631190  0.0544383182684348
  0.1565164752471494  0.7741784281956978  0.0552448294244722
  0.1576993588963701  0.8871026111617819  0.0557780860860710
  0.0572739718951816  0.9426925853203958  0.0556782828445116
  0.2547616545274863  0.7139062675204424  0.0557076981734012
  0.3556542366887678  0.7680968041996548  0.0570208295480335
  0.3566806411283213  0.8823292178918331  0.0570815474969805
  0.2579845397088042  0.9418351201917052  0.0564185861160395
  0.4561288852525762  0.7063495344415976  0.0581578771426842
  0.5566235658962820  0.7680918999165116  0.0578301769180736
  0.5556289173593286  0.8823265667328929  0.0577422772702392
  0.4561563253018620  0.9415114066269884  0.0576716322590429
  0.6575202863865865  0.7139047846282662  0.0571097780353783
  0.7557693404423019  0.7741937346922713  0.0564269776150188
  0.7546304967482644  0.8871224343411491  0.0567782168428752
  0.6543356903958266  0.9418483855550535  0.0574009044830159
  0.8567560249281497  0.7223907948328583  0.0552008848092025
  0.9561533041654410  0.7776063495086666  0.0549895860952620
  0.9561765971370506  0.8892356289125676  0.0556496955748078
  0.8550758385611701  0.9427081400447026  0.0562589692830520
  0.2483122784661055  0.3929939033421090  0.0549225484913639
  0.2483247087743850  0.6044623647054598  0.0549189044493483
  0.4561402378195202  0.3959401620845030  0.0592144396951815
  0.4560970436145407  0.6015137699832666  0.0592428763440513
  0.6639722671494711  0.3930037788385035  0.0567331769300629
  0.6639741966517169  0.6044679405918686  0.0567565218688826
  0.3528477370359858  0.4986550677843951  0.0571854978128834
  0.5594035341851562  0.4987574122923271  0.0583453302729649
 
  0.00000000E+00  0.00000000E+00  0.00000000E+00
  0.00000000E+00  0.00000000E+00  0.00000000E+00
  0.00000000E+00  0.00000000E+00  0.00000000E+00
  0.00000000E+00  0.00000000E+00  0.00000000E+00
  0.00000000E+00  0.00000000E+00  0.00000000E+00
  0.00000000E+00  0.00000000E+00  0.00000000E+00
  0.00000000E+00  0.00000000E+00  0.00000000E+00
  0.00000000E+00  0.00000000E+00  0.00000000E+00
  0.00000000E+00  0.00000000E+00  0.00000000E+00
  0.00000000E+00  0.00000000E+00  0.00000000E+00
  0.00000000E+00  0.00000000E+00  0.00000000E+00
  0.00000000E+00  0.00000000E+00  0.00000000E+00
  0.00000000E+00  0.00000000E+00  0.00000000E+00
  0.00000000E+00  0.00000000E+00  0.00000000E+00
  0.00000000E+00  0.00000000E+00  0.00000000E+00
  0.00000000E+00  0.00000000E+00  0.00000000E+00
  0.00000000E+00  0.00000000E+00  0.00000000E+00
  0.00000000E+00  0.00000000E+00  0.00000000E+00
  0.00000000E+00  0.00000000E+00  0.00000000E+00
  0.00000000E+00  0.00000000E+00  0.00000000E+00
  0.00000000E+00  0.00000000E+00  0.00000000E+00
  0.00000000E+00  0.00000000E+00  0.00000000E+00
  0.00000000E+00  0.00000000E+00  0.00000000E+00
  0.00000000E+00  0.00000000E+00  0.00000000E+00
  0.00000000E+00  0.00000000E+00  0.00000000E+00
  0.00000000E+00  0.00000000E+00  0.00000000E+00
  0.00000000E+00  0.00000000E+00  0.00000000E+00
  0.00000000E+00  0.00000000E+00  0.00000000E+00
  0.00000000E+00  0.00000000E+00  0.00000000E+00
  0.00000000E+00  0.00000000E+00  0.00000000E+00
  0.00000000E+00  0.00000000E+00  0.00000000E+00
  0.00000000E+00  0.00000000E+00  0.00000000E+00
  0.00000000E+00  0.00000000E+00  0.00000000E+00
  0.00000000E+00  0.00000000E+00  0.00000000E+00
  0.00000000E+00  0.00000000E+00  0.00000000E+00
  0.00000000E+00  0.00000000E+00  0.00000000E+00
  0.00000000E+00  0.00000000E+00  0.00000000E+00
  0.00000000E+00  0.00000000E+00  0.00000000E+00
  0.00000000E+00  0.00000000E+00  0.00000000E+00
  0.00000000E+00  0.00000000E+00  0.00000000E+00
  0.00000000E+00  0.00000000E+00  0.00000000E+00
  0.00000000E+00  0.00000000E+00  0.00000000E+00
  0.00000000E+00  0.00000000E+00  0.00000000E+00
  0.00000000E+00  0.00000000E+00  0.00000000E+00
  0.00000000E+00  0.00000000E+00  0.00000000E+00
  0.00000000E+00  0.00000000E+00  0.00000000E+00
  0.00000000E+00  0.00000000E+00  0.00000000E+00
  0.00000000E+00  0.00000000E+00  0.00000000E+00
  0.00000000E+00  0.00000000E+00  0.00000000E+00
  0.00000000E+00  0.00000000E+00  0.00000000E+00
  0.00000000E+00  0.00000000E+00  0.00000000E+00
  0.00000000E+00  0.00000000E+00  0.00000000E+00
  0.00000000E+00  0.00000000E+00  0.00000000E+00
  0.00000000E+00  0.00000000E+00  0.00000000E+00
  0.00000000E+00  0.00000000E+00  0.00000000E+00
  0.00000000E+00  0.00000000E+00  0.00000000E+00
  0.00000000E+00  0.00000000E+00  0.00000000E+00
  0.00000000E+00  0.00000000E+00  0.00000000E+00
