 C  N Cu                                
   1.00000000000000     
    12.4598675750255445   -0.0000530127248159    0.0015426456488797
     0.0000606598195425   12.6303251410239028   -0.0011927285201479
     0.0030433664763005   -0.0008638839746575   17.4185706461606458
   C    N    Cu
    50     6     2
Direct
  0.0569334902394111  0.0546370522587799  0.0545370494606666
  0.1574028377157373  0.1100099305802551  0.0538911336856249
  0.1562553251986857  0.2224607338635539  0.0522946611558328
  0.0555161654146316  0.2752715447820377  0.0512636837156407
  0.2576846170967543  0.0553540330616401  0.0549385261142177
  0.3566664290395554  0.1144409276473061  0.0572193640284854
  0.3556428113624359  0.2280222335773830  0.0592529202620849
  0.2543994225479280  0.2821535902785036  0.0545173490681070
  0.4561486974914104  0.0557092754398058  0.0583718257635276
  0.5556520497663830  0.1144084631058828  0.0575749470461491
  0.5566828816002856  0.2279969311178818  0.0597565099093475
  0.4561189497019907  0.2882797702227127  0.0683805125857584
  0.6546483365561135  0.0553433055451826  0.0554321427848870
  0.7549366679251244  0.1100036832915243  0.0543988532881457
  0.7560721305727481  0.2224413742959674  0.0529894388363106
  0.6579387702313018  0.2821292107979445  0.0554136076602302
  0.8554143145559479  0.0546339524822253  0.0548205232136285
  0.9561713985315483  0.1084901329677447  0.0540687118330029
  0.9561563130916422  0.2200736035186033  0.0522219010872452
  0.8568098089636098  0.2752625385721018  0.0517501731955877
  0.0540808984291445  0.3873177255927401  0.0501657493568946
  0.1525249648067415  0.4415780235960935  0.0500909935232212
  0.1525226860468497  0.5559055229935234  0.0500885483035732
  0.0540758536329665  0.6101649681984526  0.0501604579634564
  0.7598047369386929  0.4415676076593011  0.0512735105126571
  0.7598023537172136  0.5558815085908756  0.0512898545067835
  0.8582240549157523  0.3873032732317259  0.0508052899204255
  0.9561520865631736  0.4428511853999011  0.0502232397631699
  0.9561410848556121  0.5546175480258012  0.0502141002022032
  0.8582160584217755  0.6101588894542795  0.0508172094755105
  0.0555037318678452  0.7221908604707113  0.0512659929250948
  0.1562390235629398  0.7750268799884814  0.0523151878619591
  0.1574096237591670  0.8874682164793863  0.0539129294085940
  0.0569389542419978  0.9428306748580872  0.0545445993809843
  0.2543733982918376  0.7153392512577060  0.0545542100974588
  0.3556139619647041  0.7694791004147832  0.0592847212840190
  0.3566680728652499  0.8830628699127104  0.0572416818883345
  0.2576827118030440  0.9421368831361776  0.0549670745548782
  0.4561005410787059  0.7092136108747151  0.0683860970804092
  0.5566670536317894  0.7694861398224574  0.0597567404950917
  0.5556482346788456  0.8830767703839005  0.0575851247088418
  0.4561515085024195  0.9417886109459257  0.0583776601700837
  0.6579313236432958  0.7153308217025032  0.0554474661818012
  0.7560587303743168  0.7750159492569626  0.0530180848731078
  0.7549153143146764  0.8874693187707944  0.0544197771210159
  0.6546455902004551  0.9421438679236246  0.0554393976543984
  0.8567893213752376  0.7221976891786913  0.0517679766075754
  0.9561464749033564  0.7773956078238853  0.0522184813016353
  0.9561632803229182  0.8889756528947212  0.0540679805395021
  0.8554078427327443  0.9428303075479075  0.0548134613507807
  0.2479618979843603  0.3904239819716210  0.0530160594069959
  0.2479569397308672  0.6070652089112338  0.0530370208101383
  0.4559905894537277  0.3898451459848752  0.0882089245632955
  0.4559846636442335  0.6076501324283166  0.0882154408273085
  0.6643717905404799  0.3904055431352372  0.0543113165512263
  0.6643699339615188  0.6070517805435878  0.0543322259526602
  0.3538542570510810  0.4987430352600724  0.0652968026566076
  0.5584889605870190  0.4987375379711781  0.0661947595238489
 
  0.00000000E+00  0.00000000E+00  0.00000000E+00
  0.00000000E+00  0.00000000E+00  0.00000000E+00
  0.00000000E+00  0.00000000E+00  0.00000000E+00
  0.00000000E+00  0.00000000E+00  0.00000000E+00
  0.00000000E+00  0.00000000E+00  0.00000000E+00
  0.00000000E+00  0.00000000E+00  0.00000000E+00
  0.00000000E+00  0.00000000E+00  0.00000000E+00
  0.00000000E+00  0.00000000E+00  0.00000000E+00
  0.00000000E+00  0.00000000E+00  0.00000000E+00
  0.00000000E+00  0.00000000E+00  0.00000000E+00
  0.00000000E+00  0.00000000E+00  0.00000000E+00
  0.00000000E+00  0.00000000E+00  0.00000000E+00
  0.00000000E+00  0.00000000E+00  0.00000000E+00
  0.00000000E+00  0.00000000E+00  0.00000000E+00
  0.00000000E+00  0.00000000E+00  0.00000000E+00
  0.00000000E+00  0.00000000E+00  0.00000000E+00
  0.00000000E+00  0.00000000E+00  0.00000000E+00
  0.00000000E+00  0.00000000E+00  0.00000000E+00
  0.00000000E+00  0.00000000E+00  0.00000000E+00
  0.00000000E+00  0.00000000E+00  0.00000000E+00
  0.00000000E+00  0.00000000E+00  0.00000000E+00
  0.00000000E+00  0.00000000E+00  0.00000000E+00
  0.00000000E+00  0.00000000E+00  0.00000000E+00
  0.00000000E+00  0.00000000E+00  0.00000000E+00
  0.00000000E+00  0.00000000E+00  0.00000000E+00
  0.00000000E+00  0.00000000E+00  0.00000000E+00
  0.00000000E+00  0.00000000E+00  0.00000000E+00
  0.00000000E+00  0.00000000E+00  0.00000000E+00
  0.00000000E+00  0.00000000E+00  0.00000000E+00
  0.00000000E+00  0.00000000E+00  0.00000000E+00
  0.00000000E+00  0.00000000E+00  0.00000000E+00
  0.00000000E+00  0.00000000E+00  0.00000000E+00
  0.00000000E+00  0.00000000E+00  0.00000000E+00
  0.00000000E+00  0.00000000E+00  0.00000000E+00
  0.00000000E+00  0.00000000E+00  0.00000000E+00
  0.00000000E+00  0.00000000E+00  0.00000000E+00
  0.00000000E+00  0.00000000E+00  0.00000000E+00
  0.00000000E+00  0.00000000E+00  0.00000000E+00
  0.00000000E+00  0.00000000E+00  0.00000000E+00
  0.00000000E+00  0.00000000E+00  0.00000000E+00
  0.00000000E+00  0.00000000E+00  0.00000000E+00
  0.00000000E+00  0.00000000E+00  0.00000000E+00
  0.00000000E+00  0.00000000E+00  0.00000000E+00
  0.00000000E+00  0.00000000E+00  0.00000000E+00
  0.00000000E+00  0.00000000E+00  0.00000000E+00
  0.00000000E+00  0.00000000E+00  0.00000000E+00
  0.00000000E+00  0.00000000E+00  0.00000000E+00
  0.00000000E+00  0.00000000E+00  0.00000000E+00
  0.00000000E+00  0.00000000E+00  0.00000000E+00
  0.00000000E+00  0.00000000E+00  0.00000000E+00
  0.00000000E+00  0.00000000E+00  0.00000000E+00
  0.00000000E+00  0.00000000E+00  0.00000000E+00
  0.00000000E+00  0.00000000E+00  0.00000000E+00
  0.00000000E+00  0.00000000E+00  0.00000000E+00
  0.00000000E+00  0.00000000E+00  0.00000000E+00
  0.00000000E+00  0.00000000E+00  0.00000000E+00
  0.00000000E+00  0.00000000E+00  0.00000000E+00
  0.00000000E+00  0.00000000E+00  0.00000000E+00
