 C  N Fe Cu                             
   1.00000000000000     
    12.4758303862409967   -0.0000478759803450    0.0011139617645805
     0.0000638759172912   12.6352843055692468   -0.0004194994942763
     0.0024962071145539    0.0004689843994406   18.2274786192588536
   C    N    Fe   Cu
    50     6     1     1
Direct
  0.0573478430617669  0.0546325584465741  0.0555386112298817
  0.1574097342501468  0.1106590072331750  0.0555901416020131
  0.1565715169839324  0.2233165421064078  0.0550663167134715
  0.0555436382843388  0.2756117777815373  0.0543478102660343
  0.2571842388343482  0.0551899853758765  0.0561967307743003
  0.3560290893468044  0.1133854761812674  0.0567708848502291
  0.3546218407236074  0.2265293560606002  0.0566788194720242
  0.2546938613129355  0.2829541365366661  0.0555528097427430
  0.4558908471003202  0.0554932340199593  0.0574139771256438
  0.5559151397862363  0.1136745429618445  0.0575125976973780
  0.5568479602810084  0.2271602703411874  0.0577673449144838
  0.4554305243735131  0.2852926665232107  0.0583017357550283
  0.6547034883374879  0.0551833349720500  0.0571755655493761
  0.7551538699158618  0.1100834009822279  0.0565475948462539
  0.7564409560818519  0.2220699128407259  0.0561822239395511
  0.6581907918330795  0.2822173979411989  0.0570303427060566
  0.8556734671293146  0.0545908514988753  0.0561102026116085
  0.9563056557068352  0.1086345471703290  0.0555202260090452
  0.9564633564362426  0.2201202834637305  0.0548921706812907
  0.8570100963406835  0.2753329422135696  0.0551225012717672
  0.0543473870906271  0.3873877919745146  0.0535302365534928
  0.1518206151662376  0.4425843045200068  0.0537280356982143
  0.1518273189264398  0.5548957356301315  0.0537205033446798
  0.0543542020576665  0.6100989085700625  0.0535413605298583
  0.7602585313778281  0.4416787270615304  0.0555666210771669
  0.7602801387264457  0.5557885628248591  0.0555785225060950
  0.8583751720524397  0.3871842039144984  0.0545453268773640
  0.9562780156547062  0.4430162063787568  0.0535209427552822
  0.9562848433021799  0.5544726287970496  0.0535289716333483
  0.8583845944564682  0.6102907005989908  0.0545626221442482
  0.0555367119078489  0.7218581254857124  0.0543791055809241
  0.1565633831866506  0.7741450737661354  0.0550966517423643
  0.1574130496138937  0.8868015245480165  0.0556255244956027
  0.0573376457880094  0.9428197810463703  0.0555488895805636
  0.2546865345278725  0.7145214466254799  0.0555575299848200
  0.3546098875680738  0.7709483658790904  0.0566813083806133
  0.3560346030502898  0.8840949123882043  0.0567675071617838
  0.2571917095161969  0.9422765795577768  0.0562034947784577
  0.4554121326946646  0.7122004190649923  0.0583084018926746
  0.5568247321993570  0.7703254470711842  0.0577858477311784
  0.5559048034624282  0.8838167166673931  0.0575311731874593
  0.4558925004701067  0.9419948674683734  0.0574149887468125
  0.6581821886620247  0.7152659915851485  0.0570560505059192
  0.7564265365272826  0.7754026899316169  0.0562218984902640
  0.7551483905661842  0.8873922686357819  0.0565808429646619
  0.6547019712696135  0.9423016779174153  0.0571902715247463
  0.8570045370445182  0.7221332385090374  0.0551474254077339
  0.9564583300435958  0.7773453672767521  0.0549181420848628
  0.9562942203920884  0.8888287180807315  0.0555402184647471
  0.8556682267686955  0.9428827955953771  0.0561270556008924
  0.2497999047264770  0.3927548114462538  0.0550196709482511
  0.2498051666208018  0.6047161857965546  0.0550123920170638
  0.4521397208581059  0.3890219034304476  0.0605523861879621
  0.4521343103121166  0.6084709042464795  0.0605649745987333
  0.6649373900942797  0.3901480103532003  0.0569085715050060
  0.6649544148382259  0.6073347362782353  0.0569151553504106
  0.3587668594790736  0.4987546068473196  0.0579164843952743
  0.5553613258801741  0.4987628295795060  0.0585062698122887
 
  0.00000000E+00  0.00000000E+00  0.00000000E+00
  0.00000000E+00  0.00000000E+00  0.00000000E+00
  0.00000000E+00  0.00000000E+00  0.00000000E+00
  0.00000000E+00  0.00000000E+00  0.00000000E+00
  0.00000000E+00  0.00000000E+00  0.00000000E+00
  0.00000000E+00  0.00000000E+00  0.00000000E+00
  0.00000000E+00  0.00000000E+00  0.00000000E+00
  0.00000000E+00  0.00000000E+00  0.00000000E+00
  0.00000000E+00  0.00000000E+00  0.00000000E+00
  0.00000000E+00  0.00000000E+00  0.00000000E+00
  0.00000000E+00  0.00000000E+00  0.00000000E+00
  0.00000000E+00  0.00000000E+00  0.00000000E+00
  0.00000000E+00  0.00000000E+00  0.00000000E+00
  0.00000000E+00  0.00000000E+00  0.00000000E+00
  0.00000000E+00  0.00000000E+00  0.00000000E+00
  0.00000000E+00  0.00000000E+00  0.00000000E+00
  0.00000000E+00  0.00000000E+00  0.00000000E+00
  0.00000000E+00  0.00000000E+00  0.00000000E+00
  0.00000000E+00  0.00000000E+00  0.00000000E+00
  0.00000000E+00  0.00000000E+00  0.00000000E+00
  0.00000000E+00  0.00000000E+00  0.00000000E+00
  0.00000000E+00  0.00000000E+00  0.00000000E+00
  0.00000000E+00  0.00000000E+00  0.00000000E+00
  0.00000000E+00  0.00000000E+00  0.00000000E+00
  0.00000000E+00  0.00000000E+00  0.00000000E+00
  0.00000000E+00  0.00000000E+00  0.00000000E+00
  0.00000000E+00  0.00000000E+00  0.00000000E+00
  0.00000000E+00  0.00000000E+00  0.00000000E+00
  0.00000000E+00  0.00000000E+00  0.00000000E+00
  0.00000000E+00  0.00000000E+00  0.00000000E+00
  0.00000000E+00  0.00000000E+00  0.00000000E+00
  0.00000000E+00  0.00000000E+00  0.00000000E+00
  0.00000000E+00  0.00000000E+00  0.00000000E+00
  0.00000000E+00  0.00000000E+00  0.00000000E+00
  0.00000000E+00  0.00000000E+00  0.00000000E+00
  0.00000000E+00  0.00000000E+00  0.00000000E+00
  0.00000000E+00  0.00000000E+00  0.00000000E+00
  0.00000000E+00  0.00000000E+00  0.00000000E+00
  0.00000000E+00  0.00000000E+00  0.00000000E+00
  0.00000000E+00  0.00000000E+00  0.00000000E+00
  0.00000000E+00  0.00000000E+00  0.00000000E+00
  0.00000000E+00  0.00000000E+00  0.00000000E+00
  0.00000000E+00  0.00000000E+00  0.00000000E+00
  0.00000000E+00  0.00000000E+00  0.00000000E+00
  0.00000000E+00  0.00000000E+00  0.00000000E+00
  0.00000000E+00  0.00000000E+00  0.00000000E+00
  0.00000000E+00  0.00000000E+00  0.00000000E+00
  0.00000000E+00  0.00000000E+00  0.00000000E+00
  0.00000000E+00  0.00000000E+00  0.00000000E+00
  0.00000000E+00  0.00000000E+00  0.00000000E+00
  0.00000000E+00  0.00000000E+00  0.00000000E+00
  0.00000000E+00  0.00000000E+00  0.00000000E+00
  0.00000000E+00  0.00000000E+00  0.00000000E+00
  0.00000000E+00  0.00000000E+00  0.00000000E+00
  0.00000000E+00  0.00000000E+00  0.00000000E+00
  0.00000000E+00  0.00000000E+00  0.00000000E+00
  0.00000000E+00  0.00000000E+00  0.00000000E+00
  0.00000000E+00  0.00000000E+00  0.00000000E+00
