 C  N Fe Co                             
   1.00000000000000     
    12.4158652276412571    0.0000429646899062    0.0008491907229928
     0.0000437957265461   12.6063608559897773   -0.0002005993168475
     0.0015537967183404   -0.0003860416697403   18.1398218529059925
   C    N    Fe   Co
    50     6     1     1
Direct
  0.0573241021459060  0.0547895418851130  0.0555194833718264
  0.1577239933987398  0.1109630083138950  0.0556560876793298
  0.1571016244234735  0.2238362217799141  0.0552361624259736
  0.0557209543475569  0.2758874918172953  0.0544898827116563
  0.2575621017222430  0.0553975939177984  0.0563584674604771
  0.3564292017871284  0.1138829185050736  0.0570065203005034
  0.3554196062681634  0.2274715397088929  0.0568941636036523
  0.2555753717115619  0.2838765005665302  0.0558492844872076
  0.4560633456655642  0.0555468061176201  0.0575733734531335
  0.5559282019537067  0.1137053291607217  0.0576718280357720
  0.5568917797121685  0.2272415809845901  0.0576560553978308
  0.4564836359470995  0.2851025259430182  0.0576250789138670
  0.6547515367163210  0.0553359852164335  0.0574156988812634
  0.7545896930858623  0.1109486882761583  0.0567314692427615
  0.7552743222362317  0.2236840695182725  0.0564172421640761
  0.6566823484871562  0.2839439570576303  0.0571330523204509
  0.8550967447832797  0.0547972528334996  0.0561564345186809
  0.9561439868926643  0.1087646133517056  0.0555210344754996
  0.9562049670159781  0.2204646005160399  0.0549487046492781
  0.8564522120640379  0.2758893622063163  0.0552447787739124
  0.0548639703017950  0.3876141591688500  0.0537919448726875
  0.1532640313294459  0.4427073554712758  0.0542433972087055
  0.1532648025657871  0.5547866612019047  0.0542522122763438
  0.0548493572762250  0.6098729283430835  0.0538077625687386
  0.7584043031509975  0.4425178908767638  0.0557075990093461
  0.7583923298468126  0.5549239669502180  0.0557150464619674
  0.8570600509662052  0.3875266940084935  0.0546363383369990
  0.9559266905393440  0.4430809528093997  0.0536119852133116
  0.9559198673824362  0.5543885189079524  0.0536172435242438
  0.8570549022507302  0.6099292645104338  0.0546384607516164
  0.0556915231408649  0.7215866550645992  0.0545064338042073
  0.1570708570036300  0.7736411802718494  0.0552448252442642
  0.1577208096652590  0.8865024873563090  0.0556669722934619
  0.0573091048776126  0.9426585201876145  0.0555125852969117
  0.2555489574562538  0.7136196740033327  0.0558411777729617
  0.3553775501807455  0.7700417043271971  0.0568860866794240
  0.3564212080532261  0.8836240531946661  0.0570015284255792
  0.2575516923379977  0.9420869095030323  0.0563633813361894
  0.4564306084064340  0.7124020898368327  0.0576065082120222
  0.5568537915873377  0.7702359638732279  0.0576643661672467
  0.5559217054491117  0.8837781655794872  0.0576910017279700
  0.4560610288406848  0.9419493327378056  0.0575774816302936
  0.6566453029842800  0.7135051520522807  0.0571491440156740
  0.7552403114967325  0.7737712299074289  0.0564292466962502
  0.7545754066477564  0.8865138002254448  0.0567482801906980
  0.6547515242729965  0.9421422260259902  0.0574256225460815
  0.8564145831264912  0.7215624583743574  0.0552473033810102
  0.9561717262924898  0.7769974739705883  0.0549577745890197
  0.9561220984575738  0.8886852237677721  0.0555142200373684
  0.8550850088740387  0.9426634322170087  0.0561562654288234
  0.2522109313001794  0.3940349158447621  0.0555268632154399
  0.2522039121210846  0.6034580515504994  0.0555292730497908
  0.4560657357040292  0.3902115576136376  0.0579355146317913
  0.4560373538794623  0.6072981098028958  0.0579083397708050
  0.6601155390651491  0.3937799755924490  0.0570214701837216
  0.6601041599340349  0.6036730007698644  0.0570286087245825
  0.3664017332298592  0.4987465094782247  0.0570858906827542
  0.5483057226400893  0.4988021569459456  0.0578670251745620
 
  0.00000000E+00  0.00000000E+00  0.00000000E+00
  0.00000000E+00  0.00000000E+00  0.00000000E+00
  0.00000000E+00  0.00000000E+00  0.00000000E+00
  0.00000000E+00  0.00000000E+00  0.00000000E+00
  0.00000000E+00  0.00000000E+00  0.00000000E+00
  0.00000000E+00  0.00000000E+00  0.00000000E+00
  0.00000000E+00  0.00000000E+00  0.00000000E+00
  0.00000000E+00  0.00000000E+00  0.00000000E+00
  0.00000000E+00  0.00000000E+00  0.00000000E+00
  0.00000000E+00  0.00000000E+00  0.00000000E+00
  0.00000000E+00  0.00000000E+00  0.00000000E+00
  0.00000000E+00  0.00000000E+00  0.00000000E+00
  0.00000000E+00  0.00000000E+00  0.00000000E+00
  0.00000000E+00  0.00000000E+00  0.00000000E+00
  0.00000000E+00  0.00000000E+00  0.00000000E+00
  0.00000000E+00  0.00000000E+00  0.00000000E+00
  0.00000000E+00  0.00000000E+00  0.00000000E+00
  0.00000000E+00  0.00000000E+00  0.00000000E+00
  0.00000000E+00  0.00000000E+00  0.00000000E+00
  0.00000000E+00  0.00000000E+00  0.00000000E+00
  0.00000000E+00  0.00000000E+00  0.00000000E+00
  0.00000000E+00  0.00000000E+00  0.00000000E+00
  0.00000000E+00  0.00000000E+00  0.00000000E+00
  0.00000000E+00  0.00000000E+00  0.00000000E+00
  0.00000000E+00  0.00000000E+00  0.00000000E+00
  0.00000000E+00  0.00000000E+00  0.00000000E+00
  0.00000000E+00  0.00000000E+00  0.00000000E+00
  0.00000000E+00  0.00000000E+00  0.00000000E+00
  0.00000000E+00  0.00000000E+00  0.00000000E+00
  0.00000000E+00  0.00000000E+00  0.00000000E+00
  0.00000000E+00  0.00000000E+00  0.00000000E+00
  0.00000000E+00  0.00000000E+00  0.00000000E+00
  0.00000000E+00  0.00000000E+00  0.00000000E+00
  0.00000000E+00  0.00000000E+00  0.00000000E+00
  0.00000000E+00  0.00000000E+00  0.00000000E+00
  0.00000000E+00  0.00000000E+00  0.00000000E+00
  0.00000000E+00  0.00000000E+00  0.00000000E+00
  0.00000000E+00  0.00000000E+00  0.00000000E+00
  0.00000000E+00  0.00000000E+00  0.00000000E+00
  0.00000000E+00  0.00000000E+00  0.00000000E+00
  0.00000000E+00  0.00000000E+00  0.00000000E+00
  0.00000000E+00  0.00000000E+00  0.00000000E+00
  0.00000000E+00  0.00000000E+00  0.00000000E+00
  0.00000000E+00  0.00000000E+00  0.00000000E+00
  0.00000000E+00  0.00000000E+00  0.00000000E+00
  0.00000000E+00  0.00000000E+00  0.00000000E+00
  0.00000000E+00  0.00000000E+00  0.00000000E+00
  0.00000000E+00  0.00000000E+00  0.00000000E+00
  0.00000000E+00  0.00000000E+00  0.00000000E+00
  0.00000000E+00  0.00000000E+00  0.00000000E+00
  0.00000000E+00  0.00000000E+00  0.00000000E+00
  0.00000000E+00  0.00000000E+00  0.00000000E+00
  0.00000000E+00  0.00000000E+00  0.00000000E+00
  0.00000000E+00  0.00000000E+00  0.00000000E+00
  0.00000000E+00  0.00000000E+00  0.00000000E+00
  0.00000000E+00  0.00000000E+00  0.00000000E+00
  0.00000000E+00  0.00000000E+00  0.00000000E+00
  0.00000000E+00  0.00000000E+00  0.00000000E+00
