 C  N Fe                                
   1.00000000000000     
    12.4347733281893973   -0.0001357749093005    0.0002107877982001
    -0.0000250673477159   12.6104889930261574   -0.0001282431778625
     0.0009714174845391    0.0009781123916753   17.9381212163512345
   C    N    Fe
    50     6     2
Direct
  0.0573400310395130  0.0547351531477346  0.0555417294284051
  0.1576951981255242  0.1109947335556331  0.0556810270013996
  0.1570175978966947  0.2236540741603534  0.0552424781194414
  0.0557276405884236  0.2758672920130184  0.0545009010875487
  0.2575853384601111  0.0552946963859311  0.0563474103696932
  0.3563712723205694  0.1134759925803772  0.0569501594435839
  0.3554742222301226  0.2270275497392289  0.0568667884814411
  0.2554306953024152  0.2838879779150388  0.0558556416272463
  0.4561369008446446  0.0554900668594621  0.0574841692817076
  0.5559313336164965  0.1134287163984369  0.0575750177664318
  0.5568685653689783  0.2269711139435144  0.0575838203786435
  0.4561961403058651  0.2840142222371132  0.0575938258751526
  0.6547301675591642  0.0552736107277175  0.0573197042670354
  0.7546131688061795  0.1109700577271819  0.0566612317130181
  0.7553022202956602  0.2236035737404716  0.0563456286125736
  0.6568927326824185  0.2838360816165959  0.0570928231480230
  0.8549929594713578  0.0547392661027676  0.0561284753754348
  0.9561662286837809  0.1088018726842473  0.0555259690024119
  0.9561566175793563  0.2203804575341791  0.0549511104363205
  0.8565584026844326  0.2758258799955460  0.0552170474666491
  0.0549700683970964  0.3874469198804754  0.0538303312198883
  0.1528351363377126  0.4428282680801583  0.0542824533735006
  0.1528405886149767  0.5546675090216895  0.0542609671256409
  0.0549654694668364  0.6100377944257962  0.0538365692471172
  0.7594416363255881  0.4428151424909178  0.0557499730481354
  0.7594517282582081  0.5546240332448862  0.0557293084046634
  0.8573223873810133  0.3873848321783867  0.0546547011443096
  0.9561152421293810  0.4432087547372083  0.0536595605685917
  0.9561143210611626  0.5542634031519225  0.0536725020750703
  0.8573191502175372  0.6100661910875890  0.0546533710750468
  0.0557004500962294  0.7216147177764185  0.0545356570999943
  0.1569906557247647  0.7738232701038394  0.0552604317825531
  0.1576869324088910  0.8864764778706582  0.0556750501467489
  0.0573234861708532  0.9427139817761839  0.0555452963102312
  0.2554079135355130  0.7136152158061991  0.0558568515003351
  0.3554469384207444  0.7704774047956614  0.0568658439771485
  0.3563668788773201  0.8840234253493576  0.0569493620784762
  0.2575800747379500  0.9421876247955299  0.0563403078891314
  0.4561611994345893  0.7134822037179710  0.0576070660512550
  0.5568405908991206  0.7705090354864412  0.0576045369673320
  0.5559302409253229  0.8840610937042759  0.0575886763346921
  0.4561373774547870  0.9420125182950565  0.0574869872359434
  0.6568705412806284  0.7136175870359495  0.0571193042161697
  0.7552668201375572  0.7738568107249010  0.0563825508361904
  0.7545970871718153  0.8865043577107030  0.0566852576902200
  0.6547239835553468  0.9422194209293385  0.0573292318453014
  0.8565244107480953  0.7216323083355786  0.0552512306787399
  0.9561194916335898  0.7770755043143589  0.0549865692775181
  0.9561437696867328  0.8886557005092159  0.0555400639356796
  0.8549759060847166  0.9427214394050666  0.0561382925774767
  0.2521133131898071  0.3937099489431513  0.0555869703759808
  0.2521126214912964  0.6037854125183537  0.0555458694567548
  0.4562183509692052  0.3894012816343789  0.0579744920818859
  0.4562000684926164  0.6080983557201884  0.0581206333132929
  0.6602359070214985  0.3936678700449893  0.0571067389220815
  0.6602373411577608  0.6037826609669089  0.0570860458877908
  0.3651796396837889  0.4987469698735346  0.0571705600968969
  0.5471747699582306  0.4987621544922004  0.0580854092700921
 
  0.00000000E+00  0.00000000E+00  0.00000000E+00
  0.00000000E+00  0.00000000E+00  0.00000000E+00
  0.00000000E+00  0.00000000E+00  0.00000000E+00
  0.00000000E+00  0.00000000E+00  0.00000000E+00
  0.00000000E+00  0.00000000E+00  0.00000000E+00
  0.00000000E+00  0.00000000E+00  0.00000000E+00
  0.00000000E+00  0.00000000E+00  0.00000000E+00
  0.00000000E+00  0.00000000E+00  0.00000000E+00
  0.00000000E+00  0.00000000E+00  0.00000000E+00
  0.00000000E+00  0.00000000E+00  0.00000000E+00
  0.00000000E+00  0.00000000E+00  0.00000000E+00
  0.00000000E+00  0.00000000E+00  0.00000000E+00
  0.00000000E+00  0.00000000E+00  0.00000000E+00
  0.00000000E+00  0.00000000E+00  0.00000000E+00
  0.00000000E+00  0.00000000E+00  0.00000000E+00
  0.00000000E+00  0.00000000E+00  0.00000000E+00
  0.00000000E+00  0.00000000E+00  0.00000000E+00
  0.00000000E+00  0.00000000E+00  0.00000000E+00
  0.00000000E+00  0.00000000E+00  0.00000000E+00
  0.00000000E+00  0.00000000E+00  0.00000000E+00
  0.00000000E+00  0.00000000E+00  0.00000000E+00
  0.00000000E+00  0.00000000E+00  0.00000000E+00
  0.00000000E+00  0.00000000E+00  0.00000000E+00
  0.00000000E+00  0.00000000E+00  0.00000000E+00
  0.00000000E+00  0.00000000E+00  0.00000000E+00
  0.00000000E+00  0.00000000E+00  0.00000000E+00
  0.00000000E+00  0.00000000E+00  0.00000000E+00
  0.00000000E+00  0.00000000E+00  0.00000000E+00
  0.00000000E+00  0.00000000E+00  0.00000000E+00
  0.00000000E+00  0.00000000E+00  0.00000000E+00
  0.00000000E+00  0.00000000E+00  0.00000000E+00
  0.00000000E+00  0.00000000E+00  0.00000000E+00
  0.00000000E+00  0.00000000E+00  0.00000000E+00
  0.00000000E+00  0.00000000E+00  0.00000000E+00
  0.00000000E+00  0.00000000E+00  0.00000000E+00
  0.00000000E+00  0.00000000E+00  0.00000000E+00
  0.00000000E+00  0.00000000E+00  0.00000000E+00
  0.00000000E+00  0.00000000E+00  0.00000000E+00
  0.00000000E+00  0.00000000E+00  0.00000000E+00
  0.00000000E+00  0.00000000E+00  0.00000000E+00
  0.00000000E+00  0.00000000E+00  0.00000000E+00
  0.00000000E+00  0.00000000E+00  0.00000000E+00
  0.00000000E+00  0.00000000E+00  0.00000000E+00
  0.00000000E+00  0.00000000E+00  0.00000000E+00
  0.00000000E+00  0.00000000E+00  0.00000000E+00
  0.00000000E+00  0.00000000E+00  0.00000000E+00
  0.00000000E+00  0.00000000E+00  0.00000000E+00
  0.00000000E+00  0.00000000E+00  0.00000000E+00
  0.00000000E+00  0.00000000E+00  0.00000000E+00
  0.00000000E+00  0.00000000E+00  0.00000000E+00
  0.00000000E+00  0.00000000E+00  0.00000000E+00
  0.00000000E+00  0.00000000E+00  0.00000000E+00
  0.00000000E+00  0.00000000E+00  0.00000000E+00
  0.00000000E+00  0.00000000E+00  0.00000000E+00
  0.00000000E+00  0.00000000E+00  0.00000000E+00
  0.00000000E+00  0.00000000E+00  0.00000000E+00
  0.00000000E+00  0.00000000E+00  0.00000000E+00
  0.00000000E+00  0.00000000E+00  0.00000000E+00
