 C  N Co Ni                             
   1.00000000000000     
    12.4396518969030279   -0.0001548942715603    0.0012931295713580
    -0.0000454973697974   12.5998158434720509   -0.0013441932011604
     0.0030600760671593   -0.0007937870038376   17.5469789803719074
   C    N    Co   Ni
    50     6     1     1
Direct
  0.0572971330681527  0.0547161239895168  0.0557990911465892
  0.1576585743596269  0.1106284512422390  0.0558590585422801
  0.1568398525825902  0.2236589292653587  0.0553196856725924
  0.0556526059072140  0.2755630818065077  0.0545735621820205
  0.2576083994605466  0.0555118963420018  0.0564491335883642
  0.3565228798390487  0.1145514237634075  0.0569846921084820
  0.3554007033068105  0.2283235834588751  0.0568466390623141
  0.2551233165002911  0.2837297700759723  0.0557098250532307
  0.4560190953712908  0.0557245055178276  0.0574959449586408
  0.5557842597153326  0.1143684535780877  0.0575481469363644
  0.5568172947149742  0.2282100072045095  0.0575794142840636
  0.4563313143005541  0.2881576623037446  0.0577348741883948
  0.6545555938715600  0.0554742790279289  0.0572958822545994
  0.7547000865459551  0.1105919806709643  0.0567324857461368
  0.7556110735736097  0.2233147087664074  0.0563888968667505
  0.6570692509728742  0.2834467909456155  0.0570249815333594
  0.8552494124802954  0.0547588873685369  0.0563001743150596
  0.9561286144361787  0.1084563707236699  0.0557488201325869
  0.9561343701772465  0.2201616338383149  0.0550879151069499
  0.8567080915027819  0.2753806250482255  0.0552584810628732
  0.0544574136023953  0.3874342364641645  0.0537048848847540
  0.1526949114276980  0.4421893722029805  0.0539245439846990
  0.1526787069112660  0.5552802093491448  0.0539443854509341
  0.0544426995658309  0.6100167645575192  0.0537313941330395
  0.7594815404553836  0.4421407093195580  0.0554950317363449
  0.7594887870792265  0.5552954188429791  0.0554975518553473
  0.8579124982417360  0.3874350015035414  0.0545100884959161
  0.9560381348460639  0.4428207834310705  0.0535064064856380
  0.9560364164175823  0.5546128467380066  0.0535251629099488
  0.8579086786097132  0.6099983977346265  0.0545246239789207
  0.0556151090520046  0.7218838832551814  0.0546366423873802
  0.1568139886575228  0.7737986193186648  0.0553768602373827
  0.1576416500424596  0.8868195660215027  0.0558889866409138
  0.0572924881220012  0.9427120988220112  0.0558239090296380
  0.2550954277779444  0.7137677477238822  0.0557386252736351
  0.3553704309714203  0.7691810991531651  0.0568492288893001
  0.3565178162451370  0.8829485165585806  0.0569805120412626
  0.2576132994653474  0.9419621750148497  0.0564492455267895
  0.4563288846038299  0.7094005429027160  0.0577372774161999
  0.5568223152167254  0.7692907442895583  0.0575957943137290
  0.5557832035742220  0.8831292130987216  0.0575900116373996
  0.4560270241251864  0.9417689939400362  0.0575110966895112
  0.6570698699203671  0.7140163743894968  0.0570468435783708
  0.7555920193734215  0.7741340548945551  0.0564263885658788
  0.7546924112673080  0.8868767359202444  0.0567679545733330
  0.6545499142037752  0.9420233208634646  0.0573283537455516
  0.8566943292249680  0.7220498603205157  0.0552897811412216
  0.9560999195615383  0.7772647571791461  0.0551455532685425
  0.9561191825227884  0.8889793467107228  0.0557915499684083
  0.8552311485306847  0.9426865745322611  0.0563272562330279
  0.2501893874929901  0.3937019475213713  0.0550930355366498
  0.2501785280238897  0.6037981077927396  0.0551087651144162
  0.4546555706327594  0.3926903944962368  0.0584620346003491
  0.4546660041363371  0.6048700864275001  0.0584638887905852
  0.6623466131020110  0.3929093126590635  0.0568143435609132
  0.6623706357629179  0.6045534602510693  0.0568265109094237
  0.3601022093620908  0.4988904540341837  0.0569873727895183
  0.5549988321845378  0.4987890968272480  0.0580603828834758
 
  0.00000000E+00  0.00000000E+00  0.00000000E+00
  0.00000000E+00  0.00000000E+00  0.00000000E+00
  0.00000000E+00  0.00000000E+00  0.00000000E+00
  0.00000000E+00  0.00000000E+00  0.00000000E+00
  0.00000000E+00  0.00000000E+00  0.00000000E+00
  0.00000000E+00  0.00000000E+00  0.00000000E+00
  0.00000000E+00  0.00000000E+00  0.00000000E+00
  0.00000000E+00  0.00000000E+00  0.00000000E+00
  0.00000000E+00  0.00000000E+00  0.00000000E+00
  0.00000000E+00  0.00000000E+00  0.00000000E+00
  0.00000000E+00  0.00000000E+00  0.00000000E+00
  0.00000000E+00  0.00000000E+00  0.00000000E+00
  0.00000000E+00  0.00000000E+00  0.00000000E+00
  0.00000000E+00  0.00000000E+00  0.00000000E+00
  0.00000000E+00  0.00000000E+00  0.00000000E+00
  0.00000000E+00  0.00000000E+00  0.00000000E+00
  0.00000000E+00  0.00000000E+00  0.00000000E+00
  0.00000000E+00  0.00000000E+00  0.00000000E+00
  0.00000000E+00  0.00000000E+00  0.00000000E+00
  0.00000000E+00  0.00000000E+00  0.00000000E+00
  0.00000000E+00  0.00000000E+00  0.00000000E+00
  0.00000000E+00  0.00000000E+00  0.00000000E+00
  0.00000000E+00  0.00000000E+00  0.00000000E+00
  0.00000000E+00  0.00000000E+00  0.00000000E+00
  0.00000000E+00  0.00000000E+00  0.00000000E+00
  0.00000000E+00  0.00000000E+00  0.00000000E+00
  0.00000000E+00  0.00000000E+00  0.00000000E+00
  0.00000000E+00  0.00000000E+00  0.00000000E+00
  0.00000000E+00  0.00000000E+00  0.00000000E+00
  0.00000000E+00  0.00000000E+00  0.00000000E+00
  0.00000000E+00  0.00000000E+00  0.00000000E+00
  0.00000000E+00  0.00000000E+00  0.00000000E+00
  0.00000000E+00  0.00000000E+00  0.00000000E+00
  0.00000000E+00  0.00000000E+00  0.00000000E+00
  0.00000000E+00  0.00000000E+00  0.00000000E+00
  0.00000000E+00  0.00000000E+00  0.00000000E+00
  0.00000000E+00  0.00000000E+00  0.00000000E+00
  0.00000000E+00  0.00000000E+00  0.00000000E+00
  0.00000000E+00  0.00000000E+00  0.00000000E+00
  0.00000000E+00  0.00000000E+00  0.00000000E+00
  0.00000000E+00  0.00000000E+00  0.00000000E+00
  0.00000000E+00  0.00000000E+00  0.00000000E+00
  0.00000000E+00  0.00000000E+00  0.00000000E+00
  0.00000000E+00  0.00000000E+00  0.00000000E+00
  0.00000000E+00  0.00000000E+00  0.00000000E+00
  0.00000000E+00  0.00000000E+00  0.00000000E+00
  0.00000000E+00  0.00000000E+00  0.00000000E+00
  0.00000000E+00  0.00000000E+00  0.00000000E+00
  0.00000000E+00  0.00000000E+00  0.00000000E+00
  0.00000000E+00  0.00000000E+00  0.00000000E+00
  0.00000000E+00  0.00000000E+00  0.00000000E+00
  0.00000000E+00  0.00000000E+00  0.00000000E+00
  0.00000000E+00  0.00000000E+00  0.00000000E+00
  0.00000000E+00  0.00000000E+00  0.00000000E+00
  0.00000000E+00  0.00000000E+00  0.00000000E+00
  0.00000000E+00  0.00000000E+00  0.00000000E+00
  0.00000000E+00  0.00000000E+00  0.00000000E+00
  0.00000000E+00  0.00000000E+00  0.00000000E+00
