 C  N Co                                
   1.00000000000000     
    12.4299790331318398   -0.0000491994771087   -0.0002249232586564
     0.0000623124007218   12.6249890241369052   -0.0004569816091136
     0.0001641140607317    0.0003476530619913    6.7301060607556886
   C    N    Co
    50     6     2
Direct
  0.0571890422508250  0.0547648935262156  0.0552771592121104
  0.1577203623867568  0.1109376218447601  0.0554742564083880
  0.1570590190841556  0.2237712030847162  0.0550540312735421
  0.0557207736488613  0.2758601392583710  0.0542413016891957
  0.2575367890213462  0.0553997526278605  0.0562575140224695
  0.3563966968374411  0.1141935582194119  0.0570582592999429
  0.3552609089863195  0.2277089282855536  0.0570078824881151
  0.2555743078582225  0.2839858066981375  0.0557871904215191
  0.4561509949203923  0.0555782605478393  0.0577214346191894
  0.5559103970383055  0.1141931191977644  0.0578666966500805
  0.5570417184703843  0.2277077916164766  0.0579375448730417
  0.4561441354217308  0.2863828613681659  0.0579919532093314
  0.6547795410265962  0.0554011383720305  0.0574798548287419
  0.7545963493325202  0.1109385068856930  0.0566867849731096
  0.7552539224452088  0.2237736477228648  0.0564101222826352
  0.6567399197089416  0.2839857304413196  0.0573236329469680
  0.8551237907132017  0.0547659145964626  0.0559851780156464
  0.9561533698805036  0.1087093327464567  0.0552809889584012
  0.9561486539670625  0.2204239205270666  0.0547101463949104
  0.8565776020904651  0.2758625929482232  0.0550993357844547
  0.0549314855853842  0.3876270778514173  0.0535268718767696
  0.1539749016158401  0.4424673174769325  0.0540502815725360
  0.1539753219335514  0.5550077228509377  0.0540556741065217
  0.0549319828107562  0.6098480244871540  0.0535532552561973
  0.7583320445336020  0.4424699308546352  0.0557605335607718
  0.7583322144881981  0.5550074010736731  0.0557718449357053
  0.8573569831534452  0.3876301591939015  0.0545022801912651
  0.9561366409798353  0.4429299276781733  0.0533740371532545
  0.9561370803892970  0.5545454959428758  0.0533933585873854
  0.8573582408134054  0.6098459485717717  0.0545364159330859
  0.0557220006734090  0.7216143265423836  0.0542809637620181
  0.1570603289303959  0.7737043748757266  0.0550682463956988
  0.1577213213288665  0.8865383341619858  0.0554820073280382
  0.0571894276327913  0.9427095031198681  0.0552899708455570
  0.2555760215783963  0.7134909579494290  0.0557830907911025
  0.3552621701907936  0.7697705212307586  0.0569916536555582
  0.3563979419653245  0.8832861395244519  0.0570464682938763
  0.2575371810592222  0.9420779518674939  0.0562541519252875
  0.4561460478760182  0.7110985501433553  0.0579768443819973
  0.5570433372786397  0.7697739522544230  0.0579323585418905
  0.5559111705950832  0.8832886855346457  0.0578632560167165
  0.4561514939215670  0.9419030570715357  0.0577152799022826
  0.6567408611908636  0.7134939258805388  0.0573367844910777
  0.7552555789728528  0.7737042090925279  0.0564457989882214
  0.7545970146458855  0.8865397307300523  0.0567105471544167
  0.6547803262556513  0.9420793329831457  0.0574849171367475
  0.8565791407200478  0.7216129945966938  0.0551523480721628
  0.9561502177419925  0.7770506547325571  0.0547653361369171
  0.9561540760741920  0.8887648847745958  0.0553162515027239
  0.8551243884096931  0.9427098891186638  0.0560036926421503
  0.2517888808288930  0.3939717805659761  0.0554409482078029
  0.2517894837675695  0.6035037229456123  0.0554395900902733
  0.4561350113129023  0.3908515254214431  0.0585028268238972
  0.4561361495828038  0.6066296318815917  0.0584931954306072
  0.6605250453516868  0.3939725040811334  0.0572612316975949
  0.6605256100587164  0.6035061220714811  0.0572686280206725
  0.3652561691932252  0.4987399895108098  0.0573414407403092
  0.5470283344699697  0.4987390108402536  0.0583963334991253
 
  0.00000000E+00  0.00000000E+00  0.00000000E+00
  0.00000000E+00  0.00000000E+00  0.00000000E+00
  0.00000000E+00  0.00000000E+00  0.00000000E+00
  0.00000000E+00  0.00000000E+00  0.00000000E+00
  0.00000000E+00  0.00000000E+00  0.00000000E+00
  0.00000000E+00  0.00000000E+00  0.00000000E+00
  0.00000000E+00  0.00000000E+00  0.00000000E+00
  0.00000000E+00  0.00000000E+00  0.00000000E+00
  0.00000000E+00  0.00000000E+00  0.00000000E+00
  0.00000000E+00  0.00000000E+00  0.00000000E+00
  0.00000000E+00  0.00000000E+00  0.00000000E+00
  0.00000000E+00  0.00000000E+00  0.00000000E+00
  0.00000000E+00  0.00000000E+00  0.00000000E+00
  0.00000000E+00  0.00000000E+00  0.00000000E+00
  0.00000000E+00  0.00000000E+00  0.00000000E+00
  0.00000000E+00  0.00000000E+00  0.00000000E+00
  0.00000000E+00  0.00000000E+00  0.00000000E+00
  0.00000000E+00  0.00000000E+00  0.00000000E+00
  0.00000000E+00  0.00000000E+00  0.00000000E+00
  0.00000000E+00  0.00000000E+00  0.00000000E+00
  0.00000000E+00  0.00000000E+00  0.00000000E+00
  0.00000000E+00  0.00000000E+00  0.00000000E+00
  0.00000000E+00  0.00000000E+00  0.00000000E+00
  0.00000000E+00  0.00000000E+00  0.00000000E+00
  0.00000000E+00  0.00000000E+00  0.00000000E+00
  0.00000000E+00  0.00000000E+00  0.00000000E+00
  0.00000000E+00  0.00000000E+00  0.00000000E+00
  0.00000000E+00  0.00000000E+00  0.00000000E+00
  0.00000000E+00  0.00000000E+00  0.00000000E+00
  0.00000000E+00  0.00000000E+00  0.00000000E+00
  0.00000000E+00  0.00000000E+00  0.00000000E+00
  0.00000000E+00  0.00000000E+00  0.00000000E+00
  0.00000000E+00  0.00000000E+00  0.00000000E+00
  0.00000000E+00  0.00000000E+00  0.00000000E+00
  0.00000000E+00  0.00000000E+00  0.00000000E+00
  0.00000000E+00  0.00000000E+00  0.00000000E+00
  0.00000000E+00  0.00000000E+00  0.00000000E+00
  0.00000000E+00  0.00000000E+00  0.00000000E+00
  0.00000000E+00  0.00000000E+00  0.00000000E+00
  0.00000000E+00  0.00000000E+00  0.00000000E+00
  0.00000000E+00  0.00000000E+00  0.00000000E+00
  0.00000000E+00  0.00000000E+00  0.00000000E+00
  0.00000000E+00  0.00000000E+00  0.00000000E+00
  0.00000000E+00  0.00000000E+00  0.00000000E+00
  0.00000000E+00  0.00000000E+00  0.00000000E+00
  0.00000000E+00  0.00000000E+00  0.00000000E+00
  0.00000000E+00  0.00000000E+00  0.00000000E+00
  0.00000000E+00  0.00000000E+00  0.00000000E+00
  0.00000000E+00  0.00000000E+00  0.00000000E+00
  0.00000000E+00  0.00000000E+00  0.00000000E+00
  0.00000000E+00  0.00000000E+00  0.00000000E+00
  0.00000000E+00  0.00000000E+00  0.00000000E+00
  0.00000000E+00  0.00000000E+00  0.00000000E+00
  0.00000000E+00  0.00000000E+00  0.00000000E+00
  0.00000000E+00  0.00000000E+00  0.00000000E+00
  0.00000000E+00  0.00000000E+00  0.00000000E+00
  0.00000000E+00  0.00000000E+00  0.00000000E+00
  0.00000000E+00  0.00000000E+00  0.00000000E+00
