 C  N Co Cu                             
   1.00000000000000     
    12.4587563406579562   -0.0001273220414095   -0.0002439295364629
    -0.0000178940989502   12.6340845959056161   -0.0016295215042275
     0.0003121275180259   -0.0010947689500606   17.6863424272623924
   C    N    Co   Cu
    50     6     1     1
Direct
  0.0572713384604447  0.0547029445616953  0.0556724070371905
  0.1573518486689677  0.1105820856347032  0.0556860445027706
  0.1565566937814351  0.2235677856164287  0.0551912090460350
  0.0557402109619337  0.2756058482173862  0.0544922135943350
  0.2570067592700802  0.0552640051307791  0.0562121913005363
  0.3559742190345110  0.1136008454762620  0.0567606236347917
  0.3544901992135998  0.2267087918177965  0.0567273318337091
  0.2548094091784755  0.2832003667987230  0.0556470431996691
  0.4558937152697364  0.0555435763267952  0.0573368788084770
  0.5558527146946344  0.1141418248630596  0.0574286437740902
  0.5568445182117536  0.2276554940220742  0.0576192988759958
  0.4549207595236991  0.2861592358272234  0.0581212221436267
  0.6547485070284716  0.0553348104230413  0.0571355153616906
  0.7552186727133406  0.1099945937430601  0.0566120550720946
  0.7564398456926091  0.2223051619620081  0.0562518726190920
  0.6581187455493989  0.2820832029195800  0.0569377348564245
  0.8557360829129279  0.0546421798968650  0.0562294352702056
  0.9563137521094808  0.1084984076828843  0.0556730467173481
  0.9563792538366451  0.2201431797475022  0.0550339227942474
  0.8570740966810616  0.2751888914331158  0.0551915612659842
  0.0547515605163746  0.3874950740067875  0.0536340585857805
  0.1528973024188686  0.4421458479166314  0.0538867061015373
  0.1528972584063480  0.5553438575598305  0.0539087014678050
  0.0547490039006379  0.6099756338751500  0.0536282763498925
  0.7600909171361092  0.4414752618930083  0.0554349075937912
  0.7601021025943441  0.5559720463707150  0.0554127392243117
  0.8587094269846880  0.3873672228624184  0.0544912276891742
  0.9565295263040504  0.4428648976943544  0.0534851795276588
  0.9565227270501377  0.5545941820015391  0.0534749767965037
  0.8587104690800080  0.6100801016147773  0.0544535736508776
  0.0557173510066328  0.7218615784030461  0.0545075251296306
  0.1565342782023830  0.7739022354486695  0.0552410827820640
  0.1573445189316819  0.8868780316418927  0.0557276919568867
  0.0572600302009855  0.9427337255815910  0.0556886059729629
  0.2548061960145860  0.7143075233442040  0.0557022700406303
  0.3544799517589341  0.7707909497060971  0.0567902797611491
  0.3559809615551615  0.8839009825041304  0.0568033067432848
  0.2570012241335055  0.9422127278122364  0.0562361168315019
  0.4549237342694780  0.7113828844234082  0.0581934545175475
  0.5568422279784103  0.7698357530779995  0.0576458470369129
  0.5558564664177998  0.8833442424527423  0.0574604720484412
  0.4559064188880617  0.9419479912704427  0.0573590153298522
  0.6581081907258445  0.7153682930991719  0.0569083309590855
  0.7564208534973665  0.7751442081711083  0.0562188122302605
  0.7552025129526115  0.8874577549084672  0.0565932983057679
  0.6547439899021802  0.9421506709229927  0.0571394509120044
  0.8570597178808065  0.7222566620314975  0.0551592596472159
  0.9563620380896405  0.7773047499217162  0.0550210686453580
  0.9563054488841440  0.8889456001178032  0.0556775294684144
  0.8557264061474866  0.9428091166945273  0.0562203502097499
  0.2500947424393938  0.3932263162898855  0.0551674188381160
  0.2500934543482827  0.6042780274833471  0.0552064102378579
  0.4509319614465352  0.3897345694914239  0.0599665900862808
  0.4509708173878810  0.6078101690235547  0.0600718027408593
  0.6649698771620605  0.3904256142601805  0.0567148127041607
  0.6649723880637937  0.6070170875754792  0.0566835233374461
  0.3592463171235233  0.4988554622796977  0.0579877027785054
  0.5542662104060702  0.4987297041664678  0.0583573560524239
 
  0.00000000E+00  0.00000000E+00  0.00000000E+00
  0.00000000E+00  0.00000000E+00  0.00000000E+00
  0.00000000E+00  0.00000000E+00  0.00000000E+00
  0.00000000E+00  0.00000000E+00  0.00000000E+00
  0.00000000E+00  0.00000000E+00  0.00000000E+00
  0.00000000E+00  0.00000000E+00  0.00000000E+00
  0.00000000E+00  0.00000000E+00  0.00000000E+00
  0.00000000E+00  0.00000000E+00  0.00000000E+00
  0.00000000E+00  0.00000000E+00  0.00000000E+00
  0.00000000E+00  0.00000000E+00  0.00000000E+00
  0.00000000E+00  0.00000000E+00  0.00000000E+00
  0.00000000E+00  0.00000000E+00  0.00000000E+00
  0.00000000E+00  0.00000000E+00  0.00000000E+00
  0.00000000E+00  0.00000000E+00  0.00000000E+00
  0.00000000E+00  0.00000000E+00  0.00000000E+00
  0.00000000E+00  0.00000000E+00  0.00000000E+00
  0.00000000E+00  0.00000000E+00  0.00000000E+00
  0.00000000E+00  0.00000000E+00  0.00000000E+00
  0.00000000E+00  0.00000000E+00  0.00000000E+00
  0.00000000E+00  0.00000000E+00  0.00000000E+00
  0.00000000E+00  0.00000000E+00  0.00000000E+00
  0.00000000E+00  0.00000000E+00  0.00000000E+00
  0.00000000E+00  0.00000000E+00  0.00000000E+00
  0.00000000E+00  0.00000000E+00  0.00000000E+00
  0.00000000E+00  0.00000000E+00  0.00000000E+00
  0.00000000E+00  0.00000000E+00  0.00000000E+00
  0.00000000E+00  0.00000000E+00  0.00000000E+00
  0.00000000E+00  0.00000000E+00  0.00000000E+00
  0.00000000E+00  0.00000000E+00  0.00000000E+00
  0.00000000E+00  0.00000000E+00  0.00000000E+00
  0.00000000E+00  0.00000000E+00  0.00000000E+00
  0.00000000E+00  0.00000000E+00  0.00000000E+00
  0.00000000E+00  0.00000000E+00  0.00000000E+00
  0.00000000E+00  0.00000000E+00  0.00000000E+00
  0.00000000E+00  0.00000000E+00  0.00000000E+00
  0.00000000E+00  0.00000000E+00  0.00000000E+00
  0.00000000E+00  0.00000000E+00  0.00000000E+00
  0.00000000E+00  0.00000000E+00  0.00000000E+00
  0.00000000E+00  0.00000000E+00  0.00000000E+00
  0.00000000E+00  0.00000000E+00  0.00000000E+00
  0.00000000E+00  0.00000000E+00  0.00000000E+00
  0.00000000E+00  0.00000000E+00  0.00000000E+00
  0.00000000E+00  0.00000000E+00  0.00000000E+00
  0.00000000E+00  0.00000000E+00  0.00000000E+00
  0.00000000E+00  0.00000000E+00  0.00000000E+00
  0.00000000E+00  0.00000000E+00  0.00000000E+00
  0.00000000E+00  0.00000000E+00  0.00000000E+00
  0.00000000E+00  0.00000000E+00  0.00000000E+00
  0.00000000E+00  0.00000000E+00  0.00000000E+00
  0.00000000E+00  0.00000000E+00  0.00000000E+00
  0.00000000E+00  0.00000000E+00  0.00000000E+00
  0.00000000E+00  0.00000000E+00  0.00000000E+00
  0.00000000E+00  0.00000000E+00  0.00000000E+00
  0.00000000E+00  0.00000000E+00  0.00000000E+00
  0.00000000E+00  0.00000000E+00  0.00000000E+00
  0.00000000E+00  0.00000000E+00  0.00000000E+00
  0.00000000E+00  0.00000000E+00  0.00000000E+00
  0.00000000E+00  0.00000000E+00  0.00000000E+00
