 C  N Fe Ni                             
   1.00000000000000     
    12.4545840092949067   -0.0001145620188379    0.0007089886068759
    -0.0000044834539589   12.6020009292220774    0.0002938148598691
     0.0019752349470448    0.0016312513823827   18.1001062577079033
   C    N    Fe   Ni
    50     6     1     1
Direct
  0.0573878022250753  0.0546805399339289  0.0556038772999553
  0.1577235244241044  0.1107288937896555  0.0556995799986187
  0.1568395608664737  0.2234395467351924  0.0552075800188692
  0.0555145880892715  0.2755616336350865  0.0544414618344434
  0.2577786135720492  0.0554273548854194  0.0563514682151384
  0.3565590648871476  0.1143126397412868  0.0569722305657867
  0.3554948042198601  0.2280956582261202  0.0568910800353278
  0.2550383154404201  0.2834699054035577  0.0557310167835529
  0.4560023605666166  0.0556943437547232  0.0575175227830617
  0.5558675737943339  0.1139046043064638  0.0575878972011647
  0.5567965333392469  0.2276955644647366  0.0576762977104866
  0.4568076319090396  0.2871951912117331  0.0578903776418538
  0.6545004796041063  0.0553138837943490  0.0573192406190915
  0.7546274668141932  0.1107117543925558  0.0566931760966683
  0.7556483621411617  0.2231260805537242  0.0563799868201558
  0.6570996001166673  0.2835561633758205  0.0571134533712024
  0.8552068815901226  0.0547303042470015  0.0561834916510206
  0.9561256127608865  0.1085906892014883  0.0555863974533195
  0.9562285631294593  0.2201960046677464  0.0549681766017252
  0.8566174708579539  0.2755388470699606  0.0552114793607086
  0.0540991547259382  0.3873662818148775  0.0536082144046134
  0.1517276121415569  0.4426349548719405  0.0538915401955528
  0.1517329753622641  0.5548751321394642  0.0539083561211867
  0.0540969538085062  0.6101375214203358  0.0536322683946123
  0.7596245030119864  0.4423234203536669  0.0555944436462407
  0.7596325234768457  0.5551261545017759  0.0556050343868882
  0.8575916797471846  0.3872492706660660  0.0545296664471034
  0.9557769288719986  0.4430132565951760  0.0534666072326857
  0.9557815943157298  0.5544807725854985  0.0534742601092555
  0.8575929454464473  0.6102236429258675  0.0545319738469706
  0.0554913720149376  0.7219321198156450  0.0544756826795337
  0.1568191935903016  0.7740512059657172  0.0552383374350042
  0.1577201125259365  0.8867566259590728  0.0557271889019783
  0.0573743168420818  0.9427883107311745  0.0556065624732027
  0.2550232191222025  0.7140380339183161  0.0557455622574349
  0.3554795727028199  0.7693940426848194  0.0569096720531813
  0.3565630769068183  0.8831832508396232  0.0569887029127275
  0.2577776975222227  0.9420584609501839  0.0563686685220066
  0.4567901330383985  0.7102706791241064  0.0579029728383312
  0.5567753385902274  0.7697702129375051  0.0576919977468078
  0.5558656221403342  0.8835724686306279  0.0576133959724958
  0.4560071745811887  0.9418005535293054  0.0575319025375637
  0.6570856159673520  0.7138860907794785  0.0571275548133300
  0.7556160907324256  0.7743331071666909  0.0563888161619096
  0.7546168224081378  0.8867619538499820  0.0567140808519183
  0.6544982352266594  0.9421677954727489  0.0573301877679867
  0.8565935535199807  0.7219337842667854  0.0552185637474000
  0.9562028154954879  0.7772804251058510  0.0549849904033680
  0.9561053188139288  0.8888812303010200  0.0555937565380943
  0.8551936841865306  0.9427433472479244  0.0561935401149659
  0.2499790225356739  0.3932328365740025  0.0551829417375088
  0.2499821096727676  0.6042682509210130  0.0552012961078382
  0.4556632034575766  0.3918554770151521  0.0588480925267888
  0.4556802851840607  0.6056047825173523  0.0588433693818272
  0.6623097625426939  0.3926193109099518  0.0569811924876455
  0.6623054178468871  0.6048138999412698  0.0569922803297746
  0.3596635495945842  0.4987577353194822  0.0572398486620503
  0.5561259249811440  0.4986939862599647  0.0583106691900897
 
  0.00000000E+00  0.00000000E+00  0.00000000E+00
  0.00000000E+00  0.00000000E+00  0.00000000E+00
  0.00000000E+00  0.00000000E+00  0.00000000E+00
  0.00000000E+00  0.00000000E+00  0.00000000E+00
  0.00000000E+00  0.00000000E+00  0.00000000E+00
  0.00000000E+00  0.00000000E+00  0.00000000E+00
  0.00000000E+00  0.00000000E+00  0.00000000E+00
  0.00000000E+00  0.00000000E+00  0.00000000E+00
  0.00000000E+00  0.00000000E+00  0.00000000E+00
  0.00000000E+00  0.00000000E+00  0.00000000E+00
  0.00000000E+00  0.00000000E+00  0.00000000E+00
  0.00000000E+00  0.00000000E+00  0.00000000E+00
  0.00000000E+00  0.00000000E+00  0.00000000E+00
  0.00000000E+00  0.00000000E+00  0.00000000E+00
  0.00000000E+00  0.00000000E+00  0.00000000E+00
  0.00000000E+00  0.00000000E+00  0.00000000E+00
  0.00000000E+00  0.00000000E+00  0.00000000E+00
  0.00000000E+00  0.00000000E+00  0.00000000E+00
  0.00000000E+00  0.00000000E+00  0.00000000E+00
  0.00000000E+00  0.00000000E+00  0.00000000E+00
  0.00000000E+00  0.00000000E+00  0.00000000E+00
  0.00000000E+00  0.00000000E+00  0.00000000E+00
  0.00000000E+00  0.00000000E+00  0.00000000E+00
  0.00000000E+00  0.00000000E+00  0.00000000E+00
  0.00000000E+00  0.00000000E+00  0.00000000E+00
  0.00000000E+00  0.00000000E+00  0.00000000E+00
  0.00000000E+00  0.00000000E+00  0.00000000E+00
  0.00000000E+00  0.00000000E+00  0.00000000E+00
  0.00000000E+00  0.00000000E+00  0.00000000E+00
  0.00000000E+00  0.00000000E+00  0.00000000E+00
  0.00000000E+00  0.00000000E+00  0.00000000E+00
  0.00000000E+00  0.00000000E+00  0.00000000E+00
  0.00000000E+00  0.00000000E+00  0.00000000E+00
  0.00000000E+00  0.00000000E+00  0.00000000E+00
  0.00000000E+00  0.00000000E+00  0.00000000E+00
  0.00000000E+00  0.00000000E+00  0.00000000E+00
  0.00000000E+00  0.00000000E+00  0.00000000E+00
  0.00000000E+00  0.00000000E+00  0.00000000E+00
  0.00000000E+00  0.00000000E+00  0.00000000E+00
  0.00000000E+00  0.00000000E+00  0.00000000E+00
  0.00000000E+00  0.00000000E+00  0.00000000E+00
  0.00000000E+00  0.00000000E+00  0.00000000E+00
  0.00000000E+00  0.00000000E+00  0.00000000E+00
  0.00000000E+00  0.00000000E+00  0.00000000E+00
  0.00000000E+00  0.00000000E+00  0.00000000E+00
  0.00000000E+00  0.00000000E+00  0.00000000E+00
  0.00000000E+00  0.00000000E+00  0.00000000E+00
  0.00000000E+00  0.00000000E+00  0.00000000E+00
  0.00000000E+00  0.00000000E+00  0.00000000E+00
  0.00000000E+00  0.00000000E+00  0.00000000E+00
  0.00000000E+00  0.00000000E+00  0.00000000E+00
  0.00000000E+00  0.00000000E+00  0.00000000E+00
  0.00000000E+00  0.00000000E+00  0.00000000E+00
  0.00000000E+00  0.00000000E+00  0.00000000E+00
  0.00000000E+00  0.00000000E+00  0.00000000E+00
  0.00000000E+00  0.00000000E+00  0.00000000E+00
  0.00000000E+00  0.00000000E+00  0.00000000E+00
  0.00000000E+00  0.00000000E+00  0.00000000E+00
