 C  N Cu Ni                             
   1.00000000000000     
    12.4885682253296615   -0.0001310560633587    0.0030476770889776
    -0.0000194516391629   12.6067614201685121   -0.0001029672835922
     0.0060118315014837    0.0009050269578747   18.1499922012693453
   C    N    Cu   Ni
    50     6     1     1
Direct
  0.0569169180297708  0.0546474512026310  0.0558210218364117
  0.1573802045277227  0.1100501666394104  0.0557619582539646
  0.1559965124881919  0.2223811839009019  0.0550904727837852
  0.0552294826819416  0.2750429582384926  0.0543745400039485
  0.2579148692254506  0.0554376687901721  0.0563225640312310
  0.3566513369543319  0.1147484833791093  0.0569664467520309
  0.3555462007207952  0.2287172346460271  0.0569573292044221
  0.2541478117949547  0.2824679048133835  0.0553695016299743
  0.4562495682078664  0.0557799422866337  0.0575586351331850
  0.5558989172227293  0.1144374038168861  0.0574996030491728
  0.5572398437799436  0.2281806862862197  0.0575585741580062
  0.4569146523073966  0.2894873024966739  0.0587172639678567
  0.6546618262489703  0.0554028562236977  0.0572251432164880
  0.7547897198382999  0.1104037409933590  0.0566879245712315
  0.7559435414733823  0.2230688947641514  0.0562438386906492
  0.6577740706101471  0.2832359915433185  0.0567841273602655
  0.8550723298848659  0.0547066763267954  0.0563300193901337
  0.9560686714182779  0.1083240508891015  0.0557607429456325
  0.9560385045970600  0.2198870794183734  0.0550125365512060
  0.8567327275485517  0.2752199332696380  0.0551236097018032
  0.0533415605281675  0.3871901013440164  0.0534031910760238
  0.1511087991012539  0.4417357611349191  0.0532098175701775
  0.1511092011887464  0.5557683672564331  0.0532021161028855
  0.0533405235388695  0.6103092763835807  0.0534082254970891
  0.7607102789041047  0.4419600281873314  0.0549844286653503
  0.7607183171844938  0.5555079961340023  0.0549984555640904
  0.8581822463260165  0.3871717956429623  0.0542888362619019
  0.9558444602171698  0.4428084008639374  0.0533359226839798
  0.9558498275773661  0.5546970015811586  0.0533399562969495
  0.8581855033110810  0.6103127222811591  0.0542943615091060
  0.0552190315704337  0.7224545622904842  0.0543895973785444
  0.1559882420865381  0.7751090798004343  0.0551051027407133
  0.1573716866461437  0.8874252381306681  0.0557866430684004
  0.0568990891583754  0.9428223757040622  0.0558256862625220
  0.2541356831926613  0.7150198836651956  0.0553671088999486
  0.3555355760655292  0.7687678283686213  0.0569762222149824
  0.3566526111358955  0.8827408109053025  0.0569814456435540
  0.2579163268999358  0.9420493797300417  0.0563315324701070
  0.4569106462108410  0.7079644646951551  0.0587303757028419
  0.5572181787788384  0.7692940977519555  0.0575783702878157
  0.5559010995913125  0.8830353845796640  0.0575298619516178
  0.4562522274893410  0.9417037555255796  0.0575773051779057
  0.6577510282879805  0.7142206595858456  0.0567959032737039
  0.7559089692787974  0.7744036325093618  0.0562608151720575
  0.7547850527821446  0.8870693771238559  0.0567056277820534
  0.6546569804336297  0.9420822731595800  0.0572384724525585
  0.8567214678540732  0.7222546107189698  0.0551274198987383
  0.9560265565817225  0.7776002930546108  0.0550160906994332
  0.9560505023212801  0.8891537045919283  0.0557624874310276
  0.8550664125455366  0.9427739662234418  0.0563314108028511
  0.2464890255533346  0.3907518093406100  0.0541457845005157
  0.2464991178052726  0.6067440513584967  0.0541154642504789
  0.4586894286737268  0.3935510646715820  0.0619032045778332
  0.4587004397948947  0.6038914507509962  0.0619222142532646
  0.6640712896857914  0.3924431517031112  0.0562412818473117
  0.6640615612173916  0.6050034607504623  0.0562649925907276
  0.3531806528183373  0.4987430876827890  0.0575320663569298
  0.5606126111023356  0.4986874748927101  0.0590463318526122
 
  0.00000000E+00  0.00000000E+00  0.00000000E+00
  0.00000000E+00  0.00000000E+00  0.00000000E+00
  0.00000000E+00  0.00000000E+00  0.00000000E+00
  0.00000000E+00  0.00000000E+00  0.00000000E+00
  0.00000000E+00  0.00000000E+00  0.00000000E+00
  0.00000000E+00  0.00000000E+00  0.00000000E+00
  0.00000000E+00  0.00000000E+00  0.00000000E+00
  0.00000000E+00  0.00000000E+00  0.00000000E+00
  0.00000000E+00  0.00000000E+00  0.00000000E+00
  0.00000000E+00  0.00000000E+00  0.00000000E+00
  0.00000000E+00  0.00000000E+00  0.00000000E+00
  0.00000000E+00  0.00000000E+00  0.00000000E+00
  0.00000000E+00  0.00000000E+00  0.00000000E+00
  0.00000000E+00  0.00000000E+00  0.00000000E+00
  0.00000000E+00  0.00000000E+00  0.00000000E+00
  0.00000000E+00  0.00000000E+00  0.00000000E+00
  0.00000000E+00  0.00000000E+00  0.00000000E+00
  0.00000000E+00  0.00000000E+00  0.00000000E+00
  0.00000000E+00  0.00000000E+00  0.00000000E+00
  0.00000000E+00  0.00000000E+00  0.00000000E+00
  0.00000000E+00  0.00000000E+00  0.00000000E+00
  0.00000000E+00  0.00000000E+00  0.00000000E+00
  0.00000000E+00  0.00000000E+00  0.00000000E+00
  0.00000000E+00  0.00000000E+00  0.00000000E+00
  0.00000000E+00  0.00000000E+00  0.00000000E+00
  0.00000000E+00  0.00000000E+00  0.00000000E+00
  0.00000000E+00  0.00000000E+00  0.00000000E+00
  0.00000000E+00  0.00000000E+00  0.00000000E+00
  0.00000000E+00  0.00000000E+00  0.00000000E+00
  0.00000000E+00  0.00000000E+00  0.00000000E+00
  0.00000000E+00  0.00000000E+00  0.00000000E+00
  0.00000000E+00  0.00000000E+00  0.00000000E+00
  0.00000000E+00  0.00000000E+00  0.00000000E+00
  0.00000000E+00  0.00000000E+00  0.00000000E+00
  0.00000000E+00  0.00000000E+00  0.00000000E+00
  0.00000000E+00  0.00000000E+00  0.00000000E+00
  0.00000000E+00  0.00000000E+00  0.00000000E+00
  0.00000000E+00  0.00000000E+00  0.00000000E+00
  0.00000000E+00  0.00000000E+00  0.00000000E+00
  0.00000000E+00  0.00000000E+00  0.00000000E+00
  0.00000000E+00  0.00000000E+00  0.00000000E+00
  0.00000000E+00  0.00000000E+00  0.00000000E+00
  0.00000000E+00  0.00000000E+00  0.00000000E+00
  0.00000000E+00  0.00000000E+00  0.00000000E+00
  0.00000000E+00  0.00000000E+00  0.00000000E+00
  0.00000000E+00  0.00000000E+00  0.00000000E+00
  0.00000000E+00  0.00000000E+00  0.00000000E+00
  0.00000000E+00  0.00000000E+00  0.00000000E+00
  0.00000000E+00  0.00000000E+00  0.00000000E+00
  0.00000000E+00  0.00000000E+00  0.00000000E+00
  0.00000000E+00  0.00000000E+00  0.00000000E+00
  0.00000000E+00  0.00000000E+00  0.00000000E+00
  0.00000000E+00  0.00000000E+00  0.00000000E+00
  0.00000000E+00  0.00000000E+00  0.00000000E+00
  0.00000000E+00  0.00000000E+00  0.00000000E+00
  0.00000000E+00  0.00000000E+00  0.00000000E+00
  0.00000000E+00  0.00000000E+00  0.00000000E+00
  0.00000000E+00  0.00000000E+00  0.00000000E+00
